
  12    4
  10   10   10   10

   0   0   0   0   0   3 2 3 4 
   2  10  10  10  10   3 11 6 5 
   6  10  10  10  10   3 8 6 5 
   7  10  10  10  10   2 8 5 
   9  10  10  10  10   2 10 9 
   3  10  10  10  10   1 7 
   1  10  10  10  10   1 9 
   9  10  10  10  10   1 9 
   9  10  10  10  10   1 12
   6  10  10  10  10   1 12
   2  10  10  10  10   1 12
   0   0   0   0   0   0 
